c This is a CNF SAT formula in the DIMACS CNF format,
c produced with the bc2cnf translator by Tommi Junttila;
c see http://users.ics.aalto.fi/tjunttil/circuits/index.html
c phi_Gamma <-> 1
c phi_T_feature_det <-> 1
c phi_T_transitions <-> 1
c phi_T_transitions_consistency <-> 1
c phi_T <-> 1
c phi_sim_leaves <-> 1
c phi_sim_transition <-> 1
c phi_sim <-> 1
c FORMULA <-> 1
c pi_2_9 <-> 2
c pi_1_9 <-> 15
c pi_0_9 <-> 34
c pi_2_8 <-> 59
c pi_1_8 <-> 65
c pi_0_8 <-> 81
c pi_2_7 <-> 103
c pi_1_7 <-> 109
c pi_0_7 <-> 129
c pi_2_0 <-> 157
c pi_2_6 <-> 157
c pi_1_0 <-> 161
c pi_1_6 <-> 161
c pi_0_0 <-> 177
c pi_0_6 <-> 177
c pi_2_5 <-> 199
c pi_1_5 <-> 214
c pi_0_5 <-> 237
c pi_2_4 <-> 268
c pi_1_4 <-> 272
c pi_0_4 <-> 285
c pi_2_3 <-> 302
c pi_1_3 <-> 304
c pi_0_3 <-> 317
c pi_2_2 <-> 334
c pi_1_2 <-> 336
c pi_0_2 <-> 346
c pi_2_1 <-> 358
c pi_1_1 <-> 360
c pi_0_1 <-> 376
c alp_approved_1_0 <-> 398
c alp_approved_1_1 <-> 398
c alp_approved_1_2 <-> 398
c alp_approved_1_3 <-> 398
c alp_approved_1_4 <-> 398
c alp_approved_0_5 <-> 398
c alp_approved_1_6 <-> 398
c alp_approved_1_7 <-> 398
c alp_approved_1_8 <-> 398
c alp_approved_1_9 <-> 398
c alp_approved_1_5 <-> 399
c approved_P100 <-> 399
c alp_approved_0_0 <-> 400
c alp_approved_0_1 <-> 400
c alp_approved_0_2 <-> 400
c alp_approved_0_3 <-> 400
c alp_approved_0_4 <-> 400
c alp_approved_0_6 <-> 400
c alp_approved_0_7 <-> 400
c alp_approved_0_8 <-> 400
c alp_approved_0_9 <-> 400
c approved_P0 <-> 400
c tau_2_3_approved_1 <-> 450
c tau_2_3_approved_0 <-> 451
c tau_2_2_approved_1 <-> 452
c tau_2_2_approved_0 <-> 453
c tau_2_1_approved_1 <-> 454
c tau_2_1_approved_0 <-> 455
c tau_2_0_approved_1 <-> 456
c tau_2_0_approved_0 <-> 457
c tau_1_3_approved_1 <-> 495
c tau_1_3_approved_0 <-> 496
c tau_1_3_2 <-> 497
c tau_1_2_approved_1 <-> 498
c tau_1_2_approved_0 <-> 499
c tau_1_2_2 <-> 500
c tau_1_1_approved_1 <-> 501
c tau_1_1_approved_0 <-> 502
c tau_1_1_2 <-> 503
c tau_1_0_approved_1 <-> 504
c tau_1_0_approved_0 <-> 505
c tau_1_0_2 <-> 506
c tau_0_3_approved_1 <-> 569
c tau_0_3_approved_0 <-> 571
c tau_0_3_2 <-> 572
c tau_0_3_1 <-> 573
c tau_0_2_approved_1 <-> 574
c tau_0_2_approved_0 <-> 575
c tau_0_2_2 <-> 576
c tau_0_2_1 <-> 577
c tau_0_1_approved_1 <-> 578
c tau_0_1_approved_0 <-> 579
c tau_0_1_2 <-> 580
c tau_0_1_1 <-> 581
c tau_0_0_approved_1 <-> 582
c tau_0_0_approved_0 <-> 583
c tau_0_0_2 <-> 584
c tau_0_0_1 <-> 585
c lam_2_credit_score <-> 599
c lam_2_dependents <-> 601
c lam_2_monthly_income <-> 603
c lam_2_age <-> 604
c lam_1_credit_score <-> 618
c lam_1_dependents <-> 620
c lam_1_monthly_income <-> 622
c lam_1_age <-> 623
c lam_0_credit_score <-> 637
c lam_0_dependents <-> 639
c lam_0_monthly_income <-> 641
c lam_0_age <-> 642
p wcnf 642 1815 11  
11 1 0
11 2 -3 0
11 2 -6 0
11 -2 6 3 0
11 -3 4 0
11 -3 599 0
11 3 -599 -4 0
11 -4 -452 0
11 -4 5 0
11 4 -5 452 0
11 5 453 0
11 5 -400 0
11 -5 400 -453 0
11 6 -7 0
11 6 -8 0
11 -6 8 7 0
11 -7 13 0
11 -7 601 0
11 7 -601 -13 0
11 8 -9 0
11 8 -12 0
11 -8 12 9 0
11 -9 10 0
11 -9 603 0
11 9 -603 -10 0
11 -10 -456 0
11 -10 11 0
11 10 -11 456 0
11 11 457 0
11 11 -400 0
11 -11 400 -457 0
11 -12 13 0
11 -12 604 0
11 12 -604 -13 0
11 -13 -454 0
11 -13 14 0
11 13 -14 454 0
11 14 455 0
11 14 -400 0
11 -14 400 -455 0
11 15 -16 0
11 15 -21 0
11 -15 21 16 0
11 -16 17 0
11 -16 618 0
11 16 -618 -17 0
11 -17 -498 0
11 -17 18 0
11 17 -18 498 0
11 -18 19 0
11 -18 20 0
11 18 -20 -19 0
11 19 499 0
11 19 -400 0
11 -19 400 -499 0
11 20 -2 0
11 20 500 0
11 -20 -500 2 0
11 21 -22 0
11 21 -23 0
11 -21 23 22 0
11 -22 30 0
11 -22 620 0
11 22 -620 -30 0
11 23 -24 0
11 23 -29 0
11 -23 29 24 0
11 -24 25 0
11 -24 622 0
11 24 -622 -25 0
11 -25 -504 0
11 -25 26 0
11 25 -26 504 0
11 -26 27 0
11 -26 28 0
11 26 -28 -27 0
11 27 505 0
11 27 -400 0
11 -27 400 -505 0
11 28 -2 0
11 28 506 0
11 -28 -506 2 0
11 -29 30 0
11 -29 623 0
11 29 -623 -30 0
11 -30 -501 0
11 -30 31 0
11 30 -31 501 0
11 -31 32 0
11 -31 33 0
11 31 -33 -32 0
11 32 502 0
11 32 -400 0
11 -32 400 -502 0
11 33 -2 0
11 33 503 0
11 -33 -503 2 0
11 34 -35 0
11 34 -42 0
11 -34 42 35 0
1 34 0
11 -35 36 0
11 -35 637 0
11 35 -637 -36 0
11 -36 -574 0
11 -36 37 0
11 36 -37 574 0
11 -37 38 0
11 -37 39 0
11 37 -39 -38 0
11 38 575 0
11 38 -400 0
11 -38 400 -575 0
11 -39 40 0
11 -39 41 0
11 39 -41 -40 0
11 40 -2 0
11 40 576 0
11 -40 -576 2 0
11 41 -15 0
11 41 577 0
11 -41 -577 15 0
11 42 -43 0
11 42 -44 0
11 -42 44 43 0
11 -43 53 0
11 -43 639 0
11 43 -639 -53 0
11 44 -45 0
11 44 -52 0
11 -44 52 45 0
11 -45 46 0
11 -45 641 0
11 45 -641 -46 0
11 -46 -582 0
11 -46 47 0
11 46 -47 582 0
11 -47 48 0
11 -47 49 0
11 47 -49 -48 0
11 48 583 0
11 48 -400 0
11 -48 400 -583 0
11 -49 50 0
11 -49 51 0
11 49 -51 -50 0
11 50 -2 0
11 50 584 0
11 -50 -584 2 0
11 51 -15 0
11 51 585 0
11 -51 -585 15 0
11 -52 53 0
11 -52 642 0
11 52 -642 -53 0
11 -53 -578 0
11 -53 54 0
11 53 -54 578 0
11 -54 55 0
11 -54 56 0
11 54 -56 -55 0
11 55 579 0
11 55 -400 0
11 -55 400 -579 0
11 -56 57 0
11 -56 58 0
11 56 -58 -57 0
11 57 -2 0
11 57 580 0
11 -57 -580 2 0
11 58 -15 0
11 58 581 0
11 -58 -581 15 0
11 59 -60 0
11 59 -61 0
11 -59 61 60 0
11 -60 13 0
11 -60 599 0
11 60 -599 -13 0
11 61 -62 0
11 61 -63 0
11 -61 63 62 0
11 -62 10 0
11 -62 601 0
11 62 -601 -10 0
11 63 -9 0
11 63 -64 0
11 -63 64 9 0
11 -64 4 0
11 -64 604 0
11 64 -604 -4 0
11 65 -66 0
11 65 -70 0
11 -65 70 66 0
11 -66 67 0
11 -66 618 0
11 66 -618 -67 0
11 -67 -501 0
11 -67 68 0
11 67 -68 501 0
11 -68 32 0
11 -68 69 0
11 68 -69 -32 0
11 69 503 0
11 69 -59 0
11 -69 59 -503 0
11 70 -71 0
11 70 -72 0
11 -70 72 71 0
11 -71 74 0
11 -71 620 0
11 71 -620 -74 0
11 72 -73 0
11 72 -77 0
11 -72 77 73 0
11 -73 74 0
11 -73 622 0
11 73 -622 -74 0
11 -74 -504 0
11 -74 75 0
11 74 -75 504 0
11 -75 27 0
11 -75 76 0
11 75 -76 -27 0
11 76 506 0
11 76 -59 0
11 -76 59 -506 0
11 -77 78 0
11 -77 623 0
11 77 -623 -78 0
11 -78 -498 0
11 -78 79 0
11 78 -79 498 0
11 -79 19 0
11 -79 80 0
11 79 -80 -19 0
11 80 500 0
11 80 -59 0
11 -80 59 -500 0
11 81 -82 0
11 81 -88 0
11 -81 88 82 0
1 81 0
11 -82 83 0
11 -82 637 0
11 82 -637 -83 0
11 -83 -578 0
11 -83 84 0
11 83 -84 578 0
11 -84 55 0
11 -84 85 0
11 84 -85 -55 0
11 -85 86 0
11 -85 87 0
11 85 -87 -86 0
11 86 580 0
11 86 -59 0
11 -86 59 -580 0
11 87 581 0
11 87 -65 0
11 -87 65 -581 0
11 88 -89 0
11 88 -90 0
11 -88 90 89 0
11 -89 92 0
11 -89 639 0
11 89 -639 -92 0
11 90 -91 0
11 90 -97 0
11 -90 97 91 0
11 -91 92 0
11 -91 641 0
11 91 -641 -92 0
11 -92 -582 0
11 -92 93 0
11 92 -93 582 0
11 -93 48 0
11 -93 94 0
11 93 -94 -48 0
11 -94 95 0
11 -94 96 0
11 94 -96 -95 0
11 95 584 0
11 95 -59 0
11 -95 59 -584 0
11 96 585 0
11 96 -65 0
11 -96 65 -585 0
11 -97 98 0
11 -97 642 0
11 97 -642 -98 0
11 -98 -574 0
11 -98 99 0
11 98 -99 574 0
11 -99 38 0
11 -99 100 0
11 99 -100 -38 0
11 -100 101 0
11 -100 102 0
11 100 -102 -101 0
11 101 576 0
11 101 -59 0
11 -101 59 -576 0
11 102 577 0
11 102 -65 0
11 -102 65 -577 0
11 103 -3 0
11 103 -104 0
11 -103 104 3 0
11 104 -7 0
11 104 -105 0
11 -104 105 7 0
11 105 -9 0
11 105 -106 0
11 -105 106 9 0
11 -106 107 0
11 -106 604 0
11 106 -604 -107 0
11 -107 -450 0
11 -107 108 0
11 107 -108 450 0
11 108 451 0
11 108 -400 0
11 -108 400 -451 0
11 109 -110 0
11 109 -114 0
11 -109 114 110 0
11 -110 111 0
11 -110 618 0
11 110 -618 -111 0
11 -111 -498 0
11 -111 112 0
11 111 -112 498 0
11 -112 19 0
11 -112 113 0
11 112 -113 -19 0
11 113 500 0
11 113 -103 0
11 -113 103 -500 0
11 114 -115 0
11 114 -119 0
11 -114 119 115 0
11 -115 116 0
11 -115 620 0
11 115 -620 -116 0
11 -116 -501 0
11 -116 117 0
11 116 -117 501 0
11 -117 32 0
11 -117 118 0
11 117 -118 -32 0
11 118 503 0
11 118 -103 0
11 -118 103 -503 0
11 119 -120 0
11 119 -124 0
11 -119 124 120 0
11 -120 121 0
11 -120 622 0
11 120 -622 -121 0
11 -121 -504 0
11 -121 122 0
11 121 -122 504 0
11 -122 27 0
11 -122 123 0
11 122 -123 -27 0
11 123 506 0
11 123 -103 0
11 -123 103 -506 0
11 -124 125 0
11 -124 623 0
11 124 -623 -125 0
11 -125 -495 0
11 -125 126 0
11 125 -126 495 0
11 -126 127 0
11 -126 128 0
11 126 -128 -127 0
11 127 496 0
11 127 -400 0
11 -127 400 -496 0
11 128 -103 0
11 128 497 0
11 -128 -497 103 0
11 129 -130 0
11 129 -136 0
11 -129 136 130 0
1 129 0
11 -130 131 0
11 -130 637 0
11 130 -637 -131 0
11 -131 -574 0
11 -131 132 0
11 131 -132 574 0
11 -132 38 0
11 -132 133 0
11 132 -133 -38 0
11 -133 134 0
11 -133 135 0
11 133 -135 -134 0
11 134 576 0
11 134 -103 0
11 -134 103 -576 0
11 135 577 0
11 135 -109 0
11 -135 109 -577 0
11 136 -137 0
11 136 -143 0
11 -136 143 137 0
11 -137 138 0
11 -137 639 0
11 137 -639 -138 0
11 -138 -578 0
11 -138 139 0
11 138 -139 578 0
11 -139 55 0
11 -139 140 0
11 139 -140 -55 0
11 -140 141 0
11 -140 142 0
11 140 -142 -141 0
11 141 580 0
11 141 -103 0
11 -141 103 -580 0
11 142 581 0
11 142 -109 0
11 -142 109 -581 0
11 143 -144 0
11 143 -150 0
11 -143 150 144 0
11 -144 145 0
11 -144 641 0
11 144 -641 -145 0
11 -145 -582 0
11 -145 146 0
11 145 -146 582 0
11 -146 48 0
11 -146 147 0
11 146 -147 -48 0
11 -147 148 0
11 -147 149 0
11 147 -149 -148 0
11 148 584 0
11 148 -103 0
11 -148 103 -584 0
11 149 585 0
11 149 -109 0
11 -149 109 -585 0
11 -150 151 0
11 -150 642 0
11 150 -642 -151 0
11 -151 -569 0
11 -151 152 0
11 151 -152 569 0
11 -152 153 0
11 -152 154 0
11 152 -154 -153 0
11 153 571 0
11 153 -400 0
11 -153 400 -571 0
11 -154 155 0
11 -154 156 0
11 154 -156 -155 0
11 155 -103 0
11 155 572 0
11 -155 -572 103 0
11 156 -109 0
11 156 573 0
11 -156 -573 109 0
11 157 -3 0
11 157 -158 0
11 -157 158 3 0
11 158 -7 0
11 158 -159 0
11 -158 159 7 0
11 159 -9 0
11 159 -160 0
11 -159 160 9 0
11 -160 10 0
11 -160 604 0
11 160 -604 -10 0
11 161 -162 0
11 161 -166 0
11 -161 166 162 0
11 -162 163 0
11 -162 618 0
11 162 -618 -163 0
11 -163 -498 0
11 -163 164 0
11 163 -164 498 0
11 -164 19 0
11 -164 165 0
11 164 -165 -19 0
11 165 500 0
11 165 -157 0
11 -165 157 -500 0
11 166 -167 0
11 166 -171 0
11 -166 171 167 0
11 -167 168 0
11 -167 620 0
11 167 -620 -168 0
11 -168 -501 0
11 -168 169 0
11 168 -169 501 0
11 -169 32 0
11 -169 170 0
11 169 -170 -32 0
11 170 503 0
11 170 -157 0
11 -170 157 -503 0
11 171 -172 0
11 171 -173 0
11 -171 173 172 0
11 -172 174 0
11 -172 622 0
11 172 -622 -174 0
11 -173 174 0
11 -173 623 0
11 173 -623 -174 0
11 -174 -504 0
11 -174 175 0
11 174 -175 504 0
11 -175 27 0
11 -175 176 0
11 175 -176 -27 0
11 176 506 0
11 176 -157 0
11 -176 157 -506 0
11 177 -178 0
11 177 -184 0
11 -177 184 178 0
1 177 0
11 -178 179 0
11 -178 637 0
11 178 -637 -179 0
11 -179 -574 0
11 -179 180 0
11 179 -180 574 0
11 -180 38 0
11 -180 181 0
11 180 -181 -38 0
11 -181 182 0
11 -181 183 0
11 181 -183 -182 0
11 182 576 0
11 182 -157 0
11 -182 157 -576 0
11 183 577 0
11 183 -161 0
11 -183 161 -577 0
11 184 -185 0
11 184 -191 0
11 -184 191 185 0
11 -185 186 0
11 -185 639 0
11 185 -639 -186 0
11 -186 -578 0
11 -186 187 0
11 186 -187 578 0
11 -187 55 0
11 -187 188 0
11 187 -188 -55 0
11 -188 189 0
11 -188 190 0
11 188 -190 -189 0
11 189 580 0
11 189 -157 0
11 -189 157 -580 0
11 190 581 0
11 190 -161 0
11 -190 161 -581 0
11 191 -192 0
11 191 -193 0
11 -191 193 192 0
11 -192 194 0
11 -192 641 0
11 192 -641 -194 0
11 -193 194 0
11 -193 642 0
11 193 -642 -194 0
11 -194 -582 0
11 -194 195 0
11 194 -195 582 0
11 -195 48 0
11 -195 196 0
11 195 -196 -48 0
11 -196 197 0
11 -196 198 0
11 196 -198 -197 0
11 197 584 0
11 197 -157 0
11 -197 157 -584 0
11 198 585 0
11 198 -161 0
11 -198 161 -585 0
11 199 -200 0
11 199 -203 0
11 -199 203 200 0
11 -200 201 0
11 -200 599 0
11 200 -599 -201 0
11 -201 -453 0
11 -201 202 0
11 201 -202 453 0
11 202 452 0
11 202 -399 0
11 -202 399 -452 0
11 203 -204 0
11 203 -207 0
11 -203 207 204 0
11 -204 205 0
11 -204 601 0
11 204 -601 -205 0
11 -205 -457 0
11 -205 206 0
11 205 -206 457 0
11 206 456 0
11 206 -399 0
11 -206 399 -456 0
11 207 -208 0
11 207 -211 0
11 -207 211 208 0
11 -208 209 0
11 -208 603 0
11 208 -603 -209 0
11 -209 -455 0
11 -209 210 0
11 209 -210 455 0
11 210 454 0
11 210 -399 0
11 -210 399 -454 0
11 -211 212 0
11 -211 604 0
11 211 -604 -212 0
11 -212 -451 0
11 -212 213 0
11 212 -213 451 0
11 213 450 0
11 213 -399 0
11 -213 399 -450 0
11 214 -215 0
11 214 -220 0
11 -214 220 215 0
11 -215 216 0
11 -215 618 0
11 215 -618 -216 0
11 -216 217 0
11 -216 218 0
11 216 -218 -217 0
11 217 498 0
11 217 -399 0
11 -217 399 -498 0
11 -218 -499 0
11 -218 219 0
11 218 -219 499 0
11 219 500 0
11 219 -199 0
11 -219 199 -500 0
11 220 -221 0
11 220 -226 0
11 -220 226 221 0
11 -221 222 0
11 -221 620 0
11 221 -620 -222 0
11 -222 223 0
11 -222 224 0
11 222 -224 -223 0
11 223 504 0
11 223 -399 0
11 -223 399 -504 0
11 -224 -505 0
11 -224 225 0
11 224 -225 505 0
11 225 506 0
11 225 -199 0
11 -225 199 -506 0
11 226 -227 0
11 226 -232 0
11 -226 232 227 0
11 -227 228 0
11 -227 622 0
11 227 -622 -228 0
11 -228 229 0
11 -228 230 0
11 228 -230 -229 0
11 229 501 0
11 229 -399 0
11 -229 399 -501 0
11 -230 -502 0
11 -230 231 0
11 230 -231 502 0
11 231 503 0
11 231 -199 0
11 -231 199 -503 0
11 -232 233 0
11 -232 623 0
11 232 -623 -233 0
11 -233 234 0
11 -233 235 0
11 233 -235 -234 0
11 234 495 0
11 234 -399 0
11 -234 399 -495 0
11 -235 -496 0
11 -235 236 0
11 235 -236 496 0
11 236 497 0
11 236 -199 0
11 -236 199 -497 0
11 237 -238 0
11 237 -245 0
11 -237 245 238 0
1 237 0
11 -238 239 0
11 -238 637 0
11 238 -637 -239 0
11 -239 240 0
11 -239 241 0
11 239 -241 -240 0
11 240 574 0
11 240 -399 0
11 -240 399 -574 0
11 -241 -575 0
11 -241 242 0
11 241 -242 575 0
11 -242 243 0
11 -242 244 0
11 242 -244 -243 0
11 243 576 0
11 243 -199 0
11 -243 199 -576 0
11 244 577 0
11 244 -214 0
11 -244 214 -577 0
11 245 -246 0
11 245 -253 0
11 -245 253 246 0
11 -246 247 0
11 -246 639 0
11 246 -639 -247 0
11 -247 248 0
11 -247 249 0
11 247 -249 -248 0
11 248 582 0
11 248 -399 0
11 -248 399 -582 0
11 -249 -583 0
11 -249 250 0
11 249 -250 583 0
11 -250 251 0
11 -250 252 0
11 250 -252 -251 0
11 251 584 0
11 251 -199 0
11 -251 199 -584 0
11 252 585 0
11 252 -214 0
11 -252 214 -585 0
11 253 -254 0
11 253 -261 0
11 -253 261 254 0
11 -254 255 0
11 -254 641 0
11 254 -641 -255 0
11 -255 256 0
11 -255 257 0
11 255 -257 -256 0
11 256 578 0
11 256 -399 0
11 -256 399 -578 0
11 -257 -579 0
11 -257 258 0
11 257 -258 579 0
11 -258 259 0
11 -258 260 0
11 258 -260 -259 0
11 259 580 0
11 259 -199 0
11 -259 199 -580 0
11 260 581 0
11 260 -214 0
11 -260 214 -581 0
11 -261 262 0
11 -261 642 0
11 261 -642 -262 0
11 -262 263 0
11 -262 264 0
11 262 -264 -263 0
11 263 569 0
11 263 -399 0
11 -263 399 -569 0
11 -264 -571 0
11 -264 265 0
11 264 -265 571 0
11 -265 266 0
11 -265 267 0
11 265 -267 -266 0
11 266 572 0
11 266 -199 0
11 -266 199 -572 0
11 267 573 0
11 267 -214 0
11 -267 214 -573 0
11 268 -60 0
11 268 -269 0
11 -268 269 60 0
11 269 -7 0
11 269 -270 0
11 -269 270 7 0
11 270 -160 0
11 270 -271 0
11 -270 271 160 0
11 -271 13 0
11 -271 603 0
11 271 -603 -13 0
11 272 -273 0
11 272 -274 0
11 -272 274 273 0
11 -273 278 0
11 -273 618 0
11 273 -618 -278 0
11 274 -275 0
11 274 -276 0
11 -274 276 275 0
11 -275 278 0
11 -275 620 0
11 275 -620 -278 0
11 276 -277 0
11 276 -281 0
11 -276 281 277 0
11 -277 278 0
11 -277 622 0
11 277 -622 -278 0
11 -278 -501 0
11 -278 279 0
11 278 -279 501 0
11 -279 32 0
11 -279 280 0
11 279 -280 -32 0
11 280 503 0
11 280 -268 0
11 -280 268 -503 0
11 -281 282 0
11 -281 623 0
11 281 -623 -282 0
11 -282 -504 0
11 -282 283 0
11 282 -283 504 0
11 -283 27 0
11 -283 284 0
11 283 -284 -27 0
11 284 506 0
11 284 -268 0
11 -284 268 -506 0
11 285 -286 0
11 285 -287 0
11 -285 287 286 0
1 285 0
11 -286 291 0
11 -286 637 0
11 286 -637 -291 0
11 287 -288 0
11 287 -289 0
11 -287 289 288 0
11 -288 291 0
11 -288 639 0
11 288 -639 -291 0
11 289 -290 0
11 289 -296 0
11 -289 296 290 0
11 -290 291 0
11 -290 641 0
11 290 -641 -291 0
11 -291 -578 0
11 -291 292 0
11 291 -292 578 0
11 -292 55 0
11 -292 293 0
11 292 -293 -55 0
11 -293 294 0
11 -293 295 0
11 293 -295 -294 0
11 294 580 0
11 294 -268 0
11 -294 268 -580 0
11 295 581 0
11 295 -272 0
11 -295 272 -581 0
11 -296 297 0
11 -296 642 0
11 296 -642 -297 0
11 -297 -582 0
11 -297 298 0
11 297 -298 582 0
11 -298 48 0
11 -298 299 0
11 298 -299 -48 0
11 -299 300 0
11 -299 301 0
11 299 -301 -300 0
11 300 584 0
11 300 -268 0
11 -300 268 -584 0
11 301 585 0
11 301 -272 0
11 -301 272 -585 0
11 302 -60 0
11 302 -303 0
11 -302 303 60 0
11 303 -62 0
11 303 -159 0
11 -303 159 62 0
11 304 -305 0
11 304 -309 0
11 -304 309 305 0
11 -305 306 0
11 -305 618 0
11 305 -618 -306 0
11 -306 -501 0
11 -306 307 0
11 306 -307 501 0
11 -307 32 0
11 -307 308 0
11 307 -308 -32 0
11 308 503 0
11 308 -302 0
11 -308 302 -503 0
11 309 -310 0
11 309 -311 0
11 -309 311 310 0
11 -310 314 0
11 -310 620 0
11 310 -620 -314 0
11 311 -312 0
11 311 -313 0
11 -311 313 312 0
11 -312 314 0
11 -312 622 0
11 312 -622 -314 0
11 -313 314 0
11 -313 623 0
11 313 -623 -314 0
11 -314 -504 0
11 -314 315 0
11 314 -315 504 0
11 -315 27 0
11 -315 316 0
11 315 -316 -27 0
11 316 506 0
11 316 -302 0
11 -316 302 -506 0
11 317 -318 0
11 317 -324 0
11 -317 324 318 0
1 317 0
11 -318 319 0
11 -318 637 0
11 318 -637 -319 0
11 -319 -578 0
11 -319 320 0
11 319 -320 578 0
11 -320 55 0
11 -320 321 0
11 320 -321 -55 0
11 -321 322 0
11 -321 323 0
11 321 -323 -322 0
11 322 580 0
11 322 -302 0
11 -322 302 -580 0
11 323 581 0
11 323 -304 0
11 -323 304 -581 0
11 324 -325 0
11 324 -326 0
11 -324 326 325 0
11 -325 329 0
11 -325 639 0
11 325 -639 -329 0
11 326 -327 0
11 326 -328 0
11 -326 328 327 0
11 -327 329 0
11 -327 641 0
11 327 -641 -329 0
11 -328 329 0
11 -328 642 0
11 328 -642 -329 0
11 -329 -582 0
11 -329 330 0
11 329 -330 582 0
11 -330 48 0
11 -330 331 0
11 330 -331 -48 0
11 -331 332 0
11 -331 333 0
11 331 -333 -332 0
11 332 584 0
11 332 -302 0
11 -332 302 -584 0
11 333 585 0
11 333 -304 0
11 -333 304 -585 0
11 334 -303 0
11 334 -335 0
11 -334 335 303 0
11 -335 10 0
11 -335 599 0
11 335 -599 -10 0
11 336 -337 0
11 336 -338 0
11 -336 338 337 0
11 -337 343 0
11 -337 618 0
11 337 -618 -343 0
11 338 -339 0
11 338 -340 0
11 -338 340 339 0
11 -339 343 0
11 -339 620 0
11 339 -620 -343 0
11 340 -341 0
11 340 -342 0
11 -340 342 341 0
11 -341 343 0
11 -341 622 0
11 341 -622 -343 0
11 -342 343 0
11 -342 623 0
11 342 -623 -343 0
11 -343 -504 0
11 -343 344 0
11 343 -344 504 0
11 -344 27 0
11 -344 345 0
11 344 -345 -27 0
11 345 506 0
11 345 -334 0
11 -345 334 -506 0
11 346 -347 0
11 346 -348 0
11 -346 348 347 0
1 346 0
11 -347 353 0
11 -347 637 0
11 347 -637 -353 0
11 348 -349 0
11 348 -350 0
11 -348 350 349 0
11 -349 353 0
11 -349 639 0
11 349 -639 -353 0
11 350 -351 0
11 350 -352 0
11 -350 352 351 0
11 -351 353 0
11 -351 641 0
11 351 -641 -353 0
11 -352 353 0
11 -352 642 0
11 352 -642 -353 0
11 -353 -582 0
11 -353 354 0
11 353 -354 582 0
11 -354 48 0
11 -354 355 0
11 354 -355 -48 0
11 -355 356 0
11 -355 357 0
11 355 -357 -356 0
11 356 584 0
11 356 -334 0
11 -356 334 -584 0
11 357 585 0
11 357 -336 0
11 -357 336 -585 0
11 358 -60 0
11 358 -359 0
11 -358 359 60 0
11 359 -7 0
11 359 -63 0
11 -359 63 7 0
11 360 -361 0
11 360 -362 0
11 -360 362 361 0
11 -361 364 0
11 -361 618 0
11 361 -618 -364 0
11 362 -363 0
11 362 -367 0
11 -362 367 363 0
11 -363 364 0
11 -363 620 0
11 363 -620 -364 0
11 -364 -501 0
11 -364 365 0
11 364 -365 501 0
11 -365 32 0
11 -365 366 0
11 365 -366 -32 0
11 366 503 0
11 366 -358 0
11 -366 358 -503 0
11 367 -368 0
11 367 -372 0
11 -367 372 368 0
11 -368 369 0
11 -368 622 0
11 368 -622 -369 0
11 -369 -504 0
11 -369 370 0
11 369 -370 504 0
11 -370 27 0
11 -370 371 0
11 370 -371 -27 0
11 371 506 0
11 371 -358 0
11 -371 358 -506 0
11 -372 373 0
11 -372 623 0
11 372 -623 -373 0
11 -373 -498 0
11 -373 374 0
11 373 -374 498 0
11 -374 19 0
11 -374 375 0
11 374 -375 -19 0
11 375 500 0
11 375 -358 0
11 -375 358 -500 0
11 376 -377 0
11 376 -378 0
11 -376 378 377 0
1 376 0
11 -377 380 0
11 -377 637 0
11 377 -637 -380 0
11 378 -379 0
11 378 -385 0
11 -378 385 379 0
11 -379 380 0
11 -379 639 0
11 379 -639 -380 0
11 -380 -578 0
11 -380 381 0
11 380 -381 578 0
11 -381 55 0
11 -381 382 0
11 381 -382 -55 0
11 -382 383 0
11 -382 384 0
11 382 -384 -383 0
11 383 580 0
11 383 -358 0
11 -383 358 -580 0
11 384 581 0
11 384 -360 0
11 -384 360 -581 0
11 385 -386 0
11 385 -392 0
11 -385 392 386 0
11 -386 387 0
11 -386 641 0
11 386 -641 -387 0
11 -387 -582 0
11 -387 388 0
11 387 -388 582 0
11 -388 48 0
11 -388 389 0
11 388 -389 -48 0
11 -389 390 0
11 -389 391 0
11 389 -391 -390 0
11 390 584 0
11 390 -358 0
11 -390 358 -584 0
11 391 585 0
11 391 -360 0
11 -391 360 -585 0
11 -392 393 0
11 -392 642 0
11 392 -642 -393 0
11 -393 -574 0
11 -393 394 0
11 393 -394 574 0
11 -394 38 0
11 -394 395 0
11 394 -395 -38 0
11 -395 396 0
11 -395 397 0
11 395 -397 -396 0
11 396 576 0
11 396 -358 0
11 -396 358 -576 0
11 397 577 0
11 397 -360 0
11 -397 360 -577 0
11 -398 0
11 401 599 0
11 401 -402 0
11 -401 402 -599 0
11 401 0
11 -402 -450 0
11 -402 -451 0
11 402 451 450 0
11 403 601 0
11 403 -404 0
11 -403 404 -601 0
11 403 0
11 -404 -450 0
11 -404 405 0
11 404 -405 450 0
11 -405 -451 0
11 -405 406 0
11 405 -406 451 0
11 -406 -452 0
11 -406 -453 0
11 406 453 452 0
11 407 -404 0
11 407 603 0
11 -407 -603 404 0
11 407 0
11 408 618 0
11 408 -409 0
11 -408 409 -618 0
11 408 0
11 -409 -495 0
11 -409 410 0
11 409 -410 495 0
11 -410 -496 0
11 -410 -497 0
11 410 497 496 0
11 411 620 0
11 411 -412 0
11 -411 412 -620 0
11 411 0
11 -412 -495 0
11 -412 413 0
11 412 -413 495 0
11 -413 -496 0
11 -413 414 0
11 413 -414 496 0
11 -414 -497 0
11 -414 415 0
11 414 -415 497 0
11 -415 -498 0
11 -415 416 0
11 415 -416 498 0
11 -416 -499 0
11 -416 -500 0
11 416 500 499 0
11 417 -412 0
11 417 622 0
11 -417 -622 412 0
11 417 0
11 418 637 0
11 418 -419 0
11 -418 419 -637 0
11 418 0
11 -419 -569 0
11 -419 420 0
11 419 -420 569 0
11 -420 -571 0
11 -420 421 0
11 420 -421 571 0
11 -421 -572 0
11 -421 -573 0
11 421 573 572 0
11 422 639 0
11 422 -423 0
11 -422 423 -639 0
11 422 0
11 -423 -569 0
11 -423 424 0
11 423 -424 569 0
11 -424 -571 0
11 -424 425 0
11 424 -425 571 0
11 -425 -572 0
11 -425 426 0
11 425 -426 572 0
11 -426 -573 0
11 -426 427 0
11 426 -427 573 0
11 -427 -574 0
11 -427 428 0
11 427 -428 574 0
11 -428 -575 0
11 -428 429 0
11 428 -429 575 0
11 -429 -576 0
11 -429 -577 0
11 429 577 576 0
11 430 -423 0
11 430 641 0
11 -430 -641 423 0
11 430 0
11 431 599 0
11 431 -432 0
11 -431 432 -599 0
11 431 0
11 -432 433 0
11 -432 436 0
11 432 -436 -433 0
11 433 -434 0
11 433 -435 0
11 -433 435 434 0
11 -434 -453 0
11 -434 452 0
11 434 -452 453 0
11 -435 -452 0
11 -435 453 0
11 435 -453 452 0
11 -436 437 0
11 -436 440 0
11 436 -440 -437 0
11 437 -438 0
11 437 -439 0
11 -437 439 438 0
11 -438 -455 0
11 -438 454 0
11 438 -454 455 0
11 -439 -454 0
11 -439 455 0
11 439 -455 454 0
11 440 -441 0
11 440 -442 0
11 -440 442 441 0
11 -441 -457 0
11 -441 456 0
11 441 -456 457 0
11 -442 -456 0
11 -442 457 0
11 442 -457 456 0
11 443 601 0
11 443 -436 0
11 -443 436 -601 0
11 443 0
11 444 603 0
11 444 -436 0
11 -444 436 -603 0
11 444 0
11 445 604 0
11 445 -446 0
11 -445 446 -604 0
11 445 0
11 -446 432 0
11 -446 447 0
11 446 -447 -432 0
11 447 -448 0
11 447 -449 0
11 -447 449 448 0
11 -448 -451 0
11 -448 450 0
11 448 -450 451 0
11 -449 -450 0
11 -449 451 0
11 449 -451 450 0
11 458 618 0
11 458 -459 0
11 -458 459 -618 0
11 458 0
11 -459 460 0
11 -459 467 0
11 459 -467 -460 0
11 460 -461 0
11 460 -465 0
11 -460 465 461 0
11 461 -462 0
11 461 -463 0
11 -461 463 462 0
11 -462 416 0
11 -462 498 0
11 462 -498 -416 0
11 -463 464 0
11 -463 499 0
11 463 -499 -464 0
11 -464 -498 0
11 -464 -500 0
11 464 500 498 0
11 -465 466 0
11 -465 500 0
11 465 -500 -466 0
11 -466 -498 0
11 -466 -499 0
11 466 499 498 0
11 -467 468 0
11 -467 476 0
11 467 -476 -468 0
11 468 -469 0
11 468 -474 0
11 -468 474 469 0
11 469 -470 0
11 469 -472 0
11 -469 472 470 0
11 -470 471 0
11 -470 501 0
11 470 -501 -471 0
11 -471 -502 0
11 -471 -503 0
11 471 503 502 0
11 -472 473 0
11 -472 502 0
11 472 -502 -473 0
11 -473 -501 0
11 -473 -503 0
11 473 503 501 0
11 -474 475 0
11 -474 503 0
11 474 -503 -475 0
11 -475 -501 0
11 -475 -502 0
11 475 502 501 0
11 476 -477 0
11 476 -482 0
11 -476 482 477 0
11 477 -478 0
11 477 -480 0
11 -477 480 478 0
11 -478 479 0
11 -478 504 0
11 478 -504 -479 0
11 -479 -505 0
11 -479 -506 0
11 479 506 505 0
11 -480 481 0
11 -480 505 0
11 480 -505 -481 0
11 -481 -504 0
11 -481 -506 0
11 481 506 504 0
11 -482 483 0
11 -482 506 0
11 482 -506 -483 0
11 -483 -504 0
11 -483 -505 0
11 483 505 504 0
11 484 620 0
11 484 -467 0
11 -484 467 -620 0
11 484 0
11 485 622 0
11 485 -467 0
11 -485 467 -622 0
11 485 0
11 486 623 0
11 486 -487 0
11 -486 487 -623 0
11 486 0
11 -487 459 0
11 -487 488 0
11 487 -488 -459 0
11 488 -489 0
11 488 -493 0
11 -488 493 489 0
11 489 -490 0
11 489 -491 0
11 -489 491 490 0
11 -490 410 0
11 -490 495 0
11 490 -495 -410 0
11 -491 492 0
11 -491 496 0
11 491 -496 -492 0
11 -492 -495 0
11 -492 -497 0
11 492 497 495 0
11 -493 494 0
11 -493 497 0
11 493 -497 -494 0
11 -494 -495 0
11 -494 -496 0
11 494 496 495 0
11 507 637 0
11 507 -508 0
11 -507 508 -637 0
11 507 0
11 -508 509 0
11 -508 523 0
11 508 -523 -509 0
11 509 -510 0
11 509 -516 0
11 -509 516 510 0
11 510 -511 0
11 510 -513 0
11 -510 513 511 0
11 -511 512 0
11 -511 574 0
11 511 -574 -512 0
11 -512 -576 0
11 -512 519 0
11 512 -519 576 0
11 -513 514 0
11 -513 575 0
11 513 -575 -514 0
11 -514 -576 0
11 -514 515 0
11 514 -515 576 0
11 -515 -574 0
11 -515 -577 0
11 515 577 574 0
11 516 -517 0
11 516 -520 0
11 -516 520 517 0
11 -517 518 0
11 -517 576 0
11 517 -576 -518 0
11 -518 -574 0
11 -518 519 0
11 518 -519 574 0
11 -519 -575 0
11 -519 -577 0
11 519 577 575 0
11 -520 521 0
11 -520 577 0
11 520 -577 -521 0
11 -521 -574 0
11 -521 522 0
11 521 -522 574 0
11 -522 -575 0
11 -522 -576 0
11 522 576 575 0
11 -523 524 0
11 -523 538 0
11 523 -538 -524 0
11 524 -525 0
11 524 -531 0
11 -524 531 525 0
11 525 -526 0
11 525 -528 0
11 -525 528 526 0
11 -526 527 0
11 -526 578 0
11 526 -578 -527 0
11 -527 -580 0
11 -527 534 0
11 527 -534 580 0
11 -528 529 0
11 -528 579 0
11 528 -579 -529 0
11 -529 -580 0
11 -529 530 0
11 529 -530 580 0
11 -530 -578 0
11 -530 -581 0
11 530 581 578 0
11 531 -532 0
11 531 -535 0
11 -531 535 532 0
11 -532 533 0
11 -532 580 0
11 532 -580 -533 0
11 -533 -578 0
11 -533 534 0
11 533 -534 578 0
11 -534 -579 0
11 -534 -581 0
11 534 581 579 0
11 -535 536 0
11 -535 581 0
11 535 -581 -536 0
11 -536 -578 0
11 -536 537 0
11 536 -537 578 0
11 -537 -579 0
11 -537 -580 0
11 537 580 579 0
11 538 -539 0
11 538 -545 0
11 -538 545 539 0
11 539 -540 0
11 539 -542 0
11 -539 542 540 0
11 -540 541 0
11 -540 582 0
11 540 -582 -541 0
11 -541 -584 0
11 -541 548 0
11 541 -548 584 0
11 -542 543 0
11 -542 583 0
11 542 -583 -543 0
11 -543 -584 0
11 -543 544 0
11 543 -544 584 0
11 -544 -582 0
11 -544 -585 0
11 544 585 582 0
11 545 -546 0
11 545 -549 0
11 -545 549 546 0
11 -546 547 0
11 -546 584 0
11 546 -584 -547 0
11 -547 -582 0
11 -547 548 0
11 547 -548 582 0
11 -548 -583 0
11 -548 -585 0
11 548 585 583 0
11 -549 550 0
11 -549 585 0
11 549 -585 -550 0
11 -550 -582 0
11 -550 551 0
11 550 -551 582 0
11 -551 -583 0
11 -551 -584 0
11 551 584 583 0
11 552 639 0
11 552 -523 0
11 -552 523 -639 0
11 552 0
11 553 641 0
11 553 -523 0
11 -553 523 -641 0
11 553 0
11 554 642 0
11 554 -555 0
11 -554 555 -642 0
11 554 0
11 -555 508 0
11 -555 556 0
11 555 -556 -508 0
11 556 -557 0
11 556 -563 0
11 -556 563 557 0
11 557 -558 0
11 557 -560 0
11 -557 560 558 0
11 -558 559 0
11 -558 569 0
11 558 -569 -559 0
11 -559 -572 0
11 -559 566 0
11 559 -566 572 0
11 -560 561 0
11 -560 571 0
11 560 -571 -561 0
11 -561 -572 0
11 -561 562 0
11 561 -562 572 0
11 -562 -569 0
11 -562 -573 0
11 562 573 569 0
11 563 -564 0
11 563 -567 0
11 -563 567 564 0
11 -564 565 0
11 -564 572 0
11 564 -572 -565 0
11 -565 -569 0
11 -565 566 0
11 565 -566 569 0
11 -566 -571 0
11 -566 -573 0
11 566 573 571 0
11 -567 568 0
11 -567 573 0
11 567 -573 -568 0
11 -568 -569 0
11 -568 570 0
11 568 -570 569 0
11 -570 -571 0
11 -570 -572 0
11 570 572 571 0
11 586 -587 0
11 586 -590 0
11 -586 590 587 0
11 586 0
11 -587 -601 0
11 -587 588 0
11 587 -588 601 0
11 -588 -603 0
11 -588 589 0
11 588 -589 603 0
11 -589 -604 0
11 -589 599 0
11 589 -599 604 0
11 590 -591 0
11 590 -594 0
11 -590 594 591 0
11 -591 -599 0
11 -591 592 0
11 591 -592 599 0
11 -592 -603 0
11 -592 593 0
11 592 -593 603 0
11 -593 -604 0
11 -593 601 0
11 593 -601 604 0
11 594 -595 0
11 594 -598 0
11 -594 598 595 0
11 -595 -599 0
11 -595 596 0
11 595 -596 599 0
11 -596 -601 0
11 -596 597 0
11 596 -597 601 0
11 -597 -604 0
11 -597 603 0
11 597 -603 604 0
11 -598 -599 0
11 -598 600 0
11 598 -600 599 0
11 -600 -601 0
11 -600 602 0
11 600 -602 601 0
11 -602 -603 0
11 -602 604 0
11 602 -604 603 0
11 605 -606 0
11 605 -609 0
11 -605 609 606 0
11 605 0
11 -606 -620 0
11 -606 607 0
11 606 -607 620 0
11 -607 -622 0
11 -607 608 0
11 607 -608 622 0
11 -608 -623 0
11 -608 618 0
11 608 -618 623 0
11 609 -610 0
11 609 -613 0
11 -609 613 610 0
11 -610 -618 0
11 -610 611 0
11 610 -611 618 0
11 -611 -622 0
11 -611 612 0
11 611 -612 622 0
11 -612 -623 0
11 -612 620 0
11 612 -620 623 0
11 613 -614 0
11 613 -617 0
11 -613 617 614 0
11 -614 -618 0
11 -614 615 0
11 614 -615 618 0
11 -615 -620 0
11 -615 616 0
11 615 -616 620 0
11 -616 -623 0
11 -616 622 0
11 616 -622 623 0
11 -617 -618 0
11 -617 619 0
11 617 -619 618 0
11 -619 -620 0
11 -619 621 0
11 619 -621 620 0
11 -621 -622 0
11 -621 623 0
11 621 -623 622 0
11 624 -625 0
11 624 -628 0
11 -624 628 625 0
11 624 0
11 -625 -639 0
11 -625 626 0
11 625 -626 639 0
11 -626 -641 0
11 -626 627 0
11 626 -627 641 0
11 -627 -642 0
11 -627 637 0
11 627 -637 642 0
11 628 -629 0
11 628 -632 0
11 -628 632 629 0
11 -629 -637 0
11 -629 630 0
11 629 -630 637 0
11 -630 -641 0
11 -630 631 0
11 630 -631 641 0
11 -631 -642 0
11 -631 639 0
11 631 -639 642 0
11 632 -633 0
11 632 -636 0
11 -632 636 633 0
11 -633 -637 0
11 -633 634 0
11 633 -634 637 0
11 -634 -639 0
11 -634 635 0
11 634 -635 639 0
11 -635 -642 0
11 -635 641 0
11 635 -641 642 0
11 -636 -637 0
11 -636 638 0
11 636 -638 637 0
11 -638 -639 0
11 -638 640 0
11 638 -640 639 0
11 -640 -641 0
11 -640 642 0
11 640 -642 641 0
